************************************************************************
file with basedata            : mm11_.bas
initial value random generator: 2114911361
************************************************************************
projects                      :  1
jobs (incl. supersource/sink ):  12
horizon                       :  72
RESOURCES
  - renewable                 :  2   R
  - nonrenewable              :  2   N
  - doubly constrained        :  0   D
************************************************************************
PROJECT INFORMATION:
pronr.  #jobs rel.date duedate tardcost  MPM-Time
    1     10      0       16        3       16
************************************************************************
PRECEDENCE RELATIONS:
jobnr.    #modes  #successors   successors
   0        1          3           1   2   3
   1        3          1           8
   2        3          2           6   7
   3        3          2           4  10
   4        3          1           5
   5        3          2           6   8
   6        3          1           9
   7        3          3           8   9  10
   8        3          1          11
   9        3          1          11
  10        3          1          11
  11        1          0        
************************************************************************
REQUESTS/DURATIONS:
jobnr. mode duration  R 1  R 2  R 3  R 4  E(W 1)  E(W 2)
------------------------------------------------------------------------
  0      1     0       0    0    0    0     0       0
  1      1     2       5    0    9    0    10      18
  2      1     1       0    7    0    7     7       7
  3      1     4      10    0    0    6    40      24
  4      1     5       4    0    0    7    20      35
  5      1     1       5    0    2    0     5       2
  6      1     5       0    7    0    3    35      15
  7      1     1       0    8    0    8     8       8
  8      1     4       0    2    9    0     8      36
  9      1     1       0    4    5    0     4       5
 10      1     3       0    6    0    7    18      21
 11      1     0       0    0    0    0     0       0
************************************************************************
RESOURCEAVAILABILITIES:
  R 1  R 2
   26   75
************************************************************************
RESOURCE LIMITS:
jobnr.  l(R 1)  u(R 1)  l(R 2)  u(R 2)
------------------------------------------------------------------------
  0        0       0       0       0
  1        3       5       5       9
  2        4       7       4       7
  3        5      10       3       6
  4        2       4       4       7
  5        3       5       1       2
  6        4       7       2       3
  7        4       8       4       8
  8        1       2       5       9
  9        2       4       3       5
 10        3       6       4       7
 11        0       0       0       0
************************************************************************
SCENARIOS:
------------------------------------------------------------------------
RESOURCE k = 1
s = 1: (0, 15, 6, 63, 20, 3, 24, 8, 8, 5, 28, 0)
s = 2: (0, 10, 8, 44, 16, 4, 37, 8, 8, 7, 20, 0)
s = 3: (0, 13, 7, 42, 13, 6, 66, 6, 9, 4, 27, 0)
s = 4: (0, 10, 8, 25, 23, 4, 61, 15, 6, 5, 18, 0)
s = 5: (0, 10, 8, 28, 17, 5, 39, 8, 7, 4, 20, 0)
s = 6: (0, 9, 12, 37, 31, 6, 49, 8, 13, 4, 13, 0)
s = 7: (0, 8, 7, 32, 26, 6, 24, 15, 15, 5, 27, 0)
s = 8: (0, 14, 5, 31, 15, 5, 31, 13, 9, 4, 19, 0)
s = 9: (0, 8, 7, 31, 18, 4, 30, 6, 9, 4, 19, 0)
s = 10: (0, 12, 7, 36, 20, 9, 41, 13, 9, 4, 14, 0)
s = 11: (0, 9, 7, 36, 20, 7, 22, 8, 5, 6, 12, 0)
s = 12: (0, 6, 6, 40, 33, 3, 56, 12, 10, 5, 17, 0)
s = 13: (0, 11, 8, 21, 17, 7, 26, 7, 7, 3, 18, 0)
s = 14: (0, 7, 8, 42, 18, 6, 37, 10, 11, 4, 20, 0)
s = 15: (0, 12, 8, 35, 21, 5, 33, 8, 7, 5, 15, 0)
s = 16: (0, 14, 7, 22, 25, 6, 27, 9, 6, 3, 15, 0)
s = 17: (0, 9, 5, 33, 12, 4, 54, 6, 6, 4, 12, 0)
s = 18: (0, 14, 6, 30, 14, 4, 28, 5, 6, 6, 21, 0)
s = 19: (0, 8, 6, 56, 26, 8, 34, 7, 6, 8, 26, 0)
s = 20: (0, 8, 11, 53, 23, 7, 31, 13, 7, 3, 21, 0)
s = 21: (0, 9, 5, 28, 21, 4, 26, 10, 6, 5, 23, 0)
s = 22: (0, 11, 8, 39, 13, 5, 21, 7, 6, 5, 17, 0)
s = 23: (0, 6, 8, 34, 24, 7, 35, 9, 8, 6, 17, 0)
s = 24: (0, 7, 7, 69, 16, 6, 27, 12, 14, 7, 26, 0)
s = 25: (0, 13, 7, 42, 14, 6, 21, 12, 7, 4, 16, 0)
s = 26: (0, 7, 10, 42, 17, 6, 35, 8, 7, 3, 14, 0)
s = 27: (0, 7, 8, 31, 24, 6, 55, 5, 9, 4, 11, 0)
s = 28: (0, 7, 7, 37, 30, 6, 43, 6, 10, 3, 24, 0)
s = 29: (0, 8, 5, 38, 26, 5, 32, 9, 6, 5, 17, 0)
s = 30: (0, 10, 5, 61, 17, 4, 35, 7, 7, 5, 19, 0)
s = 31: (0, 10, 7, 38, 13, 6, 33, 14, 8, 5, 32, 0)
s = 32: (0, 10, 8, 43, 30, 4, 46, 6, 6, 4, 21, 0)
s = 33: (0, 10, 5, 26, 20, 3, 35, 5, 6, 4, 19, 0)
s = 34: (0, 9, 10, 38, 22, 5, 34, 8, 14, 5, 24, 0)
s = 35: (0, 17, 6, 36, 22, 8, 40, 7, 9, 6, 18, 0)
s = 36: (0, 7, 9, 49, 15, 4, 40, 5, 9, 4, 10, 0)
s = 37: (0, 7, 7, 50, 21, 6, 41, 10, 8, 6, 20, 0)
s = 38: (0, 11, 7, 25, 17, 6, 36, 8, 9, 6, 15, 0)
s = 39: (0, 10, 6, 35, 21, 5, 30, 7, 6, 8, 15, 0)
s = 40: (0, 8, 6, 48, 15, 6, 48, 7, 11, 5, 15, 0)
s = 41: (0, 15, 8, 37, 20, 5, 36, 7, 8, 5, 22, 0)
s = 42: (0, 10, 10, 48, 21, 8, 29, 7, 10, 4, 29, 0)
s = 43: (0, 12, 6, 51, 22, 6, 40, 7, 8, 3, 17, 0)
s = 44: (0, 10, 5, 27, 28, 6, 43, 6, 9, 5, 12, 0)
s = 45: (0, 8, 7, 47, 22, 4, 54, 7, 10, 6, 17, 0)
s = 46: (0, 10, 8, 30, 12, 5, 36, 7, 7, 7, 22, 0)
s = 47: (0, 14, 6, 37, 18, 6, 22, 6, 5, 7, 16, 0)
s = 48: (0, 8, 10, 48, 26, 8, 28, 13, 16, 3, 27, 0)
s = 49: (0, 11, 7, 22, 37, 5, 56, 8, 8, 4, 13, 0)
s = 50: (0, 10, 7, 60, 25, 7, 22, 7, 6, 6, 19, 0)
s = 51: (0, 8, 11, 43, 33, 4, 62, 10, 12, 8, 17, 0)
s = 52: (0, 19, 5, 49, 17, 6, 48, 10, 8, 3, 17, 0)
s = 53: (0, 7, 7, 53, 23, 5, 41, 8, 9, 4, 18, 0)
s = 54: (0, 12, 4, 55, 20, 6, 43, 9, 9, 5, 18, 0)
s = 55: (0, 9, 5, 62, 15, 7, 52, 15, 11, 5, 18, 0)
s = 56: (0, 10, 11, 72, 21, 5, 27, 9, 9, 6, 11, 0)
s = 57: (0, 8, 5, 27, 29, 7, 48, 8, 6, 6, 20, 0)
s = 58: (0, 11, 8, 25, 13, 8, 29, 7, 9, 6, 32, 0)
s = 59: (0, 13, 10, 53, 20, 5, 35, 7, 10, 4, 14, 0)
s = 60: (0, 16, 9, 37, 17, 6, 30, 6, 9, 4, 14, 0)
s = 61: (0, 11, 8, 38, 24, 3, 32, 8, 10, 5, 17, 0)
s = 62: (0, 11, 6, 30, 17, 5, 26, 10, 6, 5, 12, 0)
s = 63: (0, 10, 5, 45, 23, 5, 30, 6, 9, 7, 15, 0)
s = 64: (0, 13, 5, 25, 32, 6, 21, 5, 6, 4, 20, 0)
s = 65: (0, 10, 9, 32, 20, 7, 32, 7, 11, 6, 24, 0)
s = 66: (0, 13, 6, 60, 12, 7, 65, 8, 5, 5, 13, 0)
s = 67: (0, 11, 7, 40, 31, 5, 29, 6, 11, 4, 18, 0)
s = 68: (0, 11, 6, 40, 27, 6, 31, 11, 6, 4, 12, 0)
s = 69: (0, 8, 8, 34, 17, 4, 24, 13, 8, 4, 22, 0)
s = 70: (0, 10, 6, 49, 17, 6, 26, 10, 7, 5, 19, 0)
s = 71: (0, 9, 10, 35, 14, 6, 55, 6, 11, 6, 17, 0)
s = 72: (0, 10, 4, 34, 13, 6, 36, 9, 12, 3, 24, 0)
s = 73: (0, 8, 8, 55, 21, 4, 25, 7, 12, 5, 14, 0)
s = 74: (0, 9, 5, 35, 26, 5, 30, 8, 12, 3, 13, 0)
s = 75: (0, 9, 6, 34, 24, 7, 42, 9, 10, 6, 26, 0)
s = 76: (0, 11, 5, 33, 22, 5, 29, 9, 12, 4, 18, 0)
s = 77: (0, 15, 9, 29, 31, 7, 45, 7, 6, 6, 21, 0)
s = 78: (0, 16, 9, 31, 21, 6, 55, 8, 9, 3, 22, 0)
s = 79: (0, 8, 6, 58, 24, 5, 21, 5, 7, 7, 19, 0)
s = 80: (0, 9, 8, 31, 37, 4, 27, 8, 10, 5, 15, 0)
s = 81: (0, 11, 8, 52, 13, 4, 36, 8, 10, 4, 11, 0)
s = 82: (0, 9, 10, 27, 16, 4, 27, 7, 9, 5, 16, 0)
s = 83: (0, 9, 8, 26, 28, 6, 35, 8, 6, 5, 19, 0)
s = 84: (0, 8, 8, 59, 17, 7, 38, 9, 12, 3, 19, 0)
s = 85: (0, 11, 5, 27, 27, 5, 27, 9, 6, 4, 26, 0)
s = 86: (0, 8, 6, 22, 22, 3, 30, 8, 8, 4, 11, 0)
s = 87: (0, 8, 8, 42, 18, 5, 22, 8, 10, 7, 23, 0)
s = 88: (0, 12, 7, 36, 12, 3, 36, 7, 7, 4, 20, 0)
s = 89: (0, 8, 7, 45, 16, 4, 35, 7, 8, 3, 12, 0)
s = 90: (0, 19, 12, 34, 13, 6, 23, 8, 6, 5, 17, 0)
s = 91: (0, 7, 5, 66, 26, 6, 59, 6, 8, 5, 20, 0)
s = 92: (0, 15, 6, 31, 22, 4, 31, 7, 10, 3, 24, 0)
s = 93: (0, 9, 7, 29, 23, 6, 43, 8, 7, 3, 14, 0)
s = 94: (0, 11, 6, 32, 16, 5, 42, 8, 7, 3, 12, 0)
s = 95: (0, 6, 5, 35, 12, 4, 56, 13, 5, 4, 22, 0)
s = 96: (0, 7, 6, 41, 17, 5, 45, 7, 9, 4, 23, 0)
s = 97: (0, 12, 5, 51, 19, 5, 34, 7, 6, 5, 21, 0)
s = 98: (0, 14, 6, 51, 24, 8, 41, 7, 7, 5, 15, 0)
s = 99: (0, 6, 9, 28, 13, 6, 37, 7, 8, 5, 30, 0)
s = 100: (0, 10, 5, 42, 32, 4, 34, 7, 9, 5, 17, 0)
s = 101: (0, 9, 7, 56, 16, 5, 39, 10, 6, 3, 15, 0)
s = 102: (0, 13, 9, 35, 23, 7, 33, 13, 8, 6, 20, 0)
s = 103: (0, 10, 7, 45, 36, 7, 40, 7, 9, 4, 17, 0)
s = 104: (0, 16, 6, 28, 16, 7, 37, 7, 15, 6, 22, 0)
s = 105: (0, 13, 8, 53, 21, 6, 32, 7, 10, 5, 12, 0)
s = 106: (0, 11, 8, 36, 18, 5, 45, 12, 8, 7, 22, 0)
s = 107: (0, 9, 5, 32, 17, 4, 47, 6, 12, 3, 23, 0)
s = 108: (0, 9, 11, 37, 17, 4, 27, 8, 6, 4, 15, 0)
s = 109: (0, 12, 6, 43, 24, 4, 37, 7, 8, 7, 28, 0)
s = 110: (0, 10, 4, 30, 31, 4, 38, 7, 9, 5, 19, 0)
s = 111: (0, 10, 12, 57, 17, 5, 29, 8, 9, 5, 33, 0)
s = 112: (0, 9, 7, 29, 22, 5, 47, 12, 5, 6, 21, 0)
s = 113: (0, 14, 8, 41, 11, 5, 30, 7, 12, 3, 22, 0)
s = 114: (0, 6, 10, 37, 15, 6, 42, 8, 6, 4, 13, 0)
s = 115: (0, 11, 7, 28, 15, 5, 51, 9, 6, 3, 13, 0)
s = 116: (0, 13, 9, 50, 14, 4, 27, 6, 9, 4, 25, 0)
s = 117: (0, 13, 5, 37, 20, 6, 36, 7, 10, 4, 20, 0)
s = 118: (0, 8, 9, 24, 22, 5, 30, 9, 9, 7, 23, 0)
s = 119: (0, 17, 12, 37, 26, 4, 30, 5, 10, 5, 16, 0)
s = 120: (0, 12, 8, 71, 22, 5, 37, 11, 8, 4, 15, 0)
s = 121: (0, 16, 9, 49, 27, 6, 27, 8, 9, 4, 15, 0)
s = 122: (0, 8, 13, 65, 22, 8, 59, 12, 7, 6, 12, 0)
s = 123: (0, 10, 8, 59, 20, 5, 47, 8, 6, 6, 23, 0)
s = 124: (0, 13, 7, 36, 17, 8, 38, 6, 10, 3, 28, 0)
s = 125: (0, 10, 6, 43, 16, 7, 68, 6, 8, 5, 19, 0)
s = 126: (0, 9, 8, 31, 14, 5, 53, 7, 11, 3, 16, 0)
s = 127: (0, 10, 6, 33, 28, 5, 30, 9, 8, 4, 23, 0)
s = 128: (0, 7, 10, 36, 14, 4, 24, 5, 5, 7, 20, 0)
s = 129: (0, 12, 10, 31, 36, 5, 43, 12, 9, 5, 21, 0)
s = 130: (0, 10, 13, 29, 17, 7, 22, 7, 6, 4, 13, 0)
s = 131: (0, 8, 7, 35, 22, 6, 35, 7, 13, 5, 18, 0)
s = 132: (0, 11, 7, 35, 21, 6, 34, 8, 6, 3, 28, 0)
s = 133: (0, 10, 6, 34, 15, 4, 34, 12, 7, 4, 11, 0)
s = 134: (0, 7, 8, 39, 23, 5, 24, 7, 7, 7, 19, 0)
s = 135: (0, 9, 6, 43, 16, 4, 33, 7, 7, 6, 26, 0)
s = 136: (0, 9, 9, 61, 23, 5, 24, 7, 6, 4, 15, 0)
s = 137: (0, 8, 8, 38, 16, 5, 23, 8, 7, 5, 22, 0)
s = 138: (0, 10, 7, 33, 27, 8, 36, 8, 8, 5, 22, 0)
s = 139: (0, 12, 8, 52, 22, 8, 37, 11, 8, 3, 17, 0)
s = 140: (0, 16, 5, 33, 18, 8, 25, 7, 6, 5, 23, 0)
s = 141: (0, 9, 7, 42, 31, 4, 56, 10, 7, 7, 21, 0)
s = 142: (0, 9, 6, 38, 20, 6, 43, 9, 8, 5, 14, 0)
s = 143: (0, 10, 9, 41, 12, 7, 32, 6, 7, 4, 16, 0)
s = 144: (0, 8, 5, 28, 15, 4, 40, 9, 8, 6, 30, 0)
s = 145: (0, 7, 6, 33, 14, 7, 38, 15, 14, 7, 15, 0)
s = 146: (0, 12, 10, 31, 17, 6, 32, 14, 6, 5, 19, 0)
s = 147: (0, 11, 8, 40, 21, 3, 22, 11, 11, 7, 26, 0)
s = 148: (0, 16, 10, 27, 17, 5, 53, 9, 5, 5, 13, 0)
s = 149: (0, 9, 5, 52, 17, 5, 41, 5, 13, 3, 22, 0)
s = 150: (0, 12, 5, 39, 28, 5, 43, 14, 11, 4, 20, 0)
s = 151: (0, 11, 11, 36, 17, 5, 54, 6, 7, 5, 19, 0)
s = 152: (0, 7, 7, 72, 19, 6, 33, 7, 7, 4, 15, 0)
s = 153: (0, 9, 8, 55, 29, 4, 38, 5, 11, 5, 22, 0)
s = 154: (0, 9, 6, 38, 21, 4, 31, 10, 6, 3, 26, 0)
s = 155: (0, 11, 9, 50, 16, 4, 29, 9, 8, 5, 20, 0)
s = 156: (0, 6, 7, 61, 32, 9, 56, 6, 11, 5, 26, 0)
s = 157: (0, 8, 6, 56, 17, 8, 29, 7, 12, 5, 23, 0)
s = 158: (0, 10, 8, 54, 18, 7, 36, 12, 11, 5, 20, 0)
s = 159: (0, 8, 6, 35, 24, 4, 53, 9, 7, 3, 13, 0)
s = 160: (0, 13, 8, 34, 28, 4, 22, 8, 8, 4, 25, 0)
s = 161: (0, 8, 7, 43, 19, 4, 49, 9, 9, 3, 14, 0)
s = 162: (0, 12, 11, 35, 28, 4, 31, 8, 7, 5, 24, 0)
s = 163: (0, 11, 6, 41, 22, 7, 56, 13, 11, 7, 21, 0)
s = 164: (0, 9, 6, 38, 17, 4, 23, 7, 12, 5, 26, 0)
s = 165: (0, 7, 11, 54, 13, 6, 32, 7, 10, 4, 16, 0)
s = 166: (0, 7, 9, 34, 16, 8, 24, 6, 8, 7, 29, 0)
s = 167: (0, 9, 5, 39, 14, 4, 39, 9, 11, 3, 13, 0)
s = 168: (0, 8, 8, 42, 20, 4, 33, 7, 7, 3, 18, 0)
s = 169: (0, 11, 8, 39, 19, 6, 39, 13, 6, 5, 10, 0)
s = 170: (0, 14, 8, 35, 28, 4, 37, 8, 7, 4, 22, 0)
s = 171: (0, 17, 8, 50, 20, 6, 33, 9, 8, 4, 22, 0)
s = 172: (0, 14, 7, 26, 22, 7, 55, 9, 10, 5, 20, 0)
s = 173: (0, 14, 6, 25, 26, 5, 43, 8, 7, 5, 21, 0)
s = 174: (0, 11, 7, 29, 22, 4, 58, 10, 7, 4, 20, 0)
s = 175: (0, 9, 6, 56, 15, 4, 38, 8, 9, 4, 11, 0)
s = 176: (0, 15, 6, 38, 25, 5, 32, 8, 7, 4, 19, 0)
s = 177: (0, 12, 8, 38, 23, 4, 40, 11, 8, 4, 17, 0)
s = 178: (0, 9, 4, 40, 21, 5, 52, 13, 8, 5, 18, 0)
s = 179: (0, 9, 7, 55, 24, 6, 35, 9, 15, 3, 17, 0)
s = 180: (0, 9, 6, 33, 32, 6, 30, 13, 7, 6, 24, 0)
s = 181: (0, 6, 5, 35, 13, 8, 25, 12, 8, 4, 20, 0)
s = 182: (0, 12, 9, 26, 27, 5, 21, 11, 9, 4, 23, 0)
s = 183: (0, 8, 14, 44, 28, 5, 38, 6, 9, 5, 19, 0)
s = 184: (0, 9, 7, 29, 26, 6, 27, 14, 8, 7, 14, 0)
s = 185: (0, 9, 8, 31, 29, 5, 48, 8, 5, 5, 25, 0)
s = 186: (0, 10, 6, 32, 20, 5, 28, 10, 11, 5, 11, 0)
s = 187: (0, 15, 4, 24, 13, 5, 32, 10, 5, 4, 24, 0)
s = 188: (0, 9, 7, 41, 26, 8, 21, 7, 11, 5, 19, 0)
s = 189: (0, 8, 8, 37, 20, 5, 38, 6, 7, 6, 17, 0)
s = 190: (0, 15, 5, 29, 17, 5, 32, 11, 7, 5, 17, 0)
s = 191: (0, 11, 5, 31, 17, 6, 21, 10, 11, 6, 15, 0)
s = 192: (0, 9, 4, 24, 18, 8, 38, 10, 10, 4, 20, 0)
s = 193: (0, 8, 7, 27, 25, 4, 34, 7, 7, 6, 13, 0)
s = 194: (0, 17, 8, 28, 12, 4, 33, 8, 6, 3, 12, 0)
s = 195: (0, 8, 6, 43, 26, 6, 35, 10, 6, 5, 22, 0)
s = 196: (0, 12, 8, 27, 25, 4, 43, 11, 9, 4, 18, 0)
s = 197: (0, 12, 8, 53, 20, 4, 34, 10, 8, 6, 13, 0)
s = 198: (0, 9, 9, 29, 34, 4, 29, 8, 10, 4, 21, 0)
s = 199: (0, 11, 11, 42, 12, 5, 26, 11, 7, 4, 10, 0)
s = 200: (0, 8, 5, 47, 29, 7, 41, 10, 11, 5, 25, 0)
------------------------------------------------------------------------
RESOURCE k = 2
s = 1: (0, 26, 6, 38, 34, 2, 10, 8, 32, 6, 32, 0)
s = 2: (0, 18, 8, 26, 28, 2, 16, 8, 35, 9, 23, 0)
s = 3: (0, 23, 7, 26, 22, 3, 29, 6, 37, 5, 31, 0)
s = 4: (0, 17, 8, 15, 39, 2, 27, 15, 24, 6, 21, 0)
s = 5: (0, 17, 8, 17, 29, 2, 17, 8, 28, 5, 23, 0)
s = 6: (0, 16, 12, 23, 54, 3, 21, 8, 57, 5, 15, 0)
s = 7: (0, 15, 7, 20, 45, 3, 11, 15, 64, 6, 31, 0)
s = 8: (0, 25, 5, 19, 26, 2, 14, 13, 37, 5, 23, 0)
s = 9: (0, 14, 7, 19, 31, 2, 13, 6, 38, 5, 23, 0)
s = 10: (0, 21, 7, 22, 35, 4, 18, 13, 37, 4, 17, 0)
s = 11: (0, 15, 7, 22, 34, 3, 10, 8, 23, 8, 14, 0)
s = 12: (0, 11, 6, 24, 58, 2, 24, 12, 43, 7, 19, 0)
s = 13: (0, 20, 8, 13, 29, 3, 11, 7, 31, 4, 21, 0)
s = 14: (0, 11, 8, 26, 31, 3, 16, 10, 49, 4, 23, 0)
s = 15: (0, 21, 8, 21, 37, 2, 14, 8, 30, 6, 18, 0)
s = 16: (0, 24, 7, 14, 43, 3, 12, 9, 27, 4, 18, 0)
s = 17: (0, 16, 5, 20, 21, 2, 23, 6, 24, 4, 14, 0)
s = 18: (0, 25, 6, 18, 24, 2, 12, 5, 26, 7, 25, 0)
s = 19: (0, 14, 6, 34, 46, 4, 15, 7, 23, 9, 31, 0)
s = 20: (0, 14, 11, 32, 39, 3, 14, 13, 28, 4, 24, 0)
s = 21: (0, 15, 5, 17, 36, 2, 12, 10, 24, 6, 27, 0)
s = 22: (0, 19, 8, 23, 22, 2, 9, 7, 24, 6, 20, 0)
s = 23: (0, 11, 8, 21, 41, 3, 15, 9, 35, 7, 19, 0)
s = 24: (0, 12, 7, 41, 28, 3, 12, 12, 62, 9, 30, 0)
s = 25: (0, 22, 7, 26, 24, 3, 9, 12, 29, 5, 18, 0)
s = 26: (0, 12, 10, 25, 30, 3, 15, 8, 32, 4, 16, 0)
s = 27: (0, 12, 8, 19, 41, 3, 24, 5, 39, 4, 13, 0)
s = 28: (0, 13, 7, 23, 51, 3, 19, 6, 45, 4, 28, 0)
s = 29: (0, 15, 5, 23, 45, 2, 14, 9, 24, 6, 19, 0)
s = 30: (0, 18, 5, 37, 30, 2, 15, 7, 28, 6, 23, 0)
s = 31: (0, 17, 7, 23, 23, 3, 15, 14, 34, 6, 37, 0)
s = 32: (0, 18, 8, 26, 52, 2, 20, 6, 25, 5, 24, 0)
s = 33: (0, 18, 5, 16, 35, 2, 15, 5, 26, 4, 23, 0)
s = 34: (0, 15, 10, 23, 39, 2, 15, 8, 63, 6, 28, 0)
s = 35: (0, 30, 6, 22, 39, 3, 17, 7, 40, 8, 20, 0)
s = 36: (0, 12, 9, 30, 25, 2, 18, 5, 37, 5, 12, 0)
s = 37: (0, 12, 7, 30, 36, 3, 18, 10, 32, 7, 23, 0)
s = 38: (0, 19, 7, 15, 29, 3, 16, 8, 38, 7, 17, 0)
s = 39: (0, 18, 6, 21, 36, 2, 13, 7, 26, 9, 18, 0)
s = 40: (0, 14, 6, 29, 26, 3, 21, 7, 48, 6, 18, 0)
s = 41: (0, 27, 8, 23, 35, 2, 16, 7, 32, 6, 25, 0)
s = 42: (0, 17, 10, 29, 36, 4, 13, 7, 45, 5, 34, 0)
s = 43: (0, 20, 6, 31, 38, 3, 17, 7, 36, 4, 20, 0)
s = 44: (0, 17, 5, 17, 49, 3, 19, 6, 38, 6, 14, 0)
s = 45: (0, 14, 7, 28, 38, 2, 24, 7, 42, 8, 19, 0)
s = 46: (0, 18, 8, 18, 20, 2, 16, 7, 30, 9, 26, 0)
s = 47: (0, 24, 6, 22, 31, 3, 10, 6, 22, 9, 19, 0)
s = 48: (0, 15, 10, 29, 45, 4, 12, 13, 71, 4, 31, 0)
s = 49: (0, 20, 7, 13, 64, 2, 24, 8, 36, 5, 15, 0)
s = 50: (0, 18, 7, 36, 43, 3, 10, 7, 23, 8, 22, 0)
s = 51: (0, 13, 11, 26, 57, 2, 27, 10, 50, 9, 20, 0)
s = 52: (0, 33, 5, 30, 30, 3, 21, 10, 36, 4, 20, 0)
s = 53: (0, 13, 7, 32, 40, 2, 18, 8, 39, 5, 21, 0)
s = 54: (0, 20, 4, 33, 34, 3, 19, 9, 37, 7, 20, 0)
s = 55: (0, 17, 5, 37, 26, 3, 22, 15, 49, 7, 21, 0)
s = 56: (0, 17, 11, 43, 36, 2, 12, 9, 39, 8, 13, 0)
s = 57: (0, 13, 5, 16, 50, 3, 21, 8, 25, 7, 23, 0)
s = 58: (0, 19, 8, 15, 23, 3, 13, 7, 40, 7, 38, 0)
s = 59: (0, 23, 10, 32, 34, 2, 15, 7, 41, 5, 17, 0)
s = 60: (0, 29, 9, 23, 30, 3, 13, 6, 38, 5, 17, 0)
s = 61: (0, 19, 8, 23, 41, 2, 14, 8, 43, 6, 19, 0)
s = 62: (0, 19, 6, 18, 30, 2, 12, 10, 23, 6, 14, 0)
s = 63: (0, 17, 5, 27, 40, 2, 13, 6, 37, 8, 18, 0)
s = 64: (0, 22, 5, 15, 56, 3, 9, 5, 27, 4, 23, 0)
s = 65: (0, 18, 9, 19, 35, 3, 14, 7, 48, 7, 28, 0)
s = 66: (0, 23, 6, 36, 21, 3, 28, 8, 23, 6, 16, 0)
s = 67: (0, 19, 7, 24, 53, 2, 13, 6, 46, 5, 21, 0)
s = 68: (0, 20, 6, 24, 47, 3, 14, 11, 27, 5, 13, 0)
s = 69: (0, 13, 8, 20, 29, 2, 11, 13, 36, 5, 26, 0)
s = 70: (0, 17, 6, 30, 30, 3, 11, 10, 29, 6, 23, 0)
s = 71: (0, 15, 10, 21, 25, 3, 24, 6, 47, 8, 20, 0)
s = 72: (0, 17, 4, 21, 23, 3, 16, 9, 50, 4, 28, 0)
s = 73: (0, 15, 8, 33, 37, 2, 11, 7, 54, 6, 16, 0)
s = 74: (0, 15, 5, 21, 45, 2, 13, 8, 51, 4, 16, 0)
s = 75: (0, 17, 6, 20, 41, 3, 18, 9, 41, 7, 30, 0)
s = 76: (0, 19, 5, 20, 39, 2, 13, 9, 52, 5, 21, 0)
s = 77: (0, 26, 9, 18, 55, 3, 19, 7, 26, 7, 24, 0)
s = 78: (0, 28, 9, 19, 37, 3, 24, 8, 38, 4, 26, 0)
s = 79: (0, 14, 6, 35, 41, 2, 9, 5, 31, 9, 22, 0)
s = 80: (0, 17, 8, 19, 64, 2, 12, 8, 45, 7, 18, 0)
s = 81: (0, 20, 8, 31, 22, 2, 16, 8, 45, 5, 13, 0)
s = 82: (0, 16, 10, 17, 28, 2, 12, 7, 40, 6, 19, 0)
s = 83: (0, 15, 8, 16, 48, 3, 15, 8, 24, 7, 22, 0)
s = 84: (0, 15, 8, 35, 29, 3, 17, 9, 53, 4, 22, 0)
s = 85: (0, 20, 5, 16, 46, 2, 12, 9, 25, 5, 30, 0)
s = 86: (0, 15, 6, 13, 38, 2, 13, 8, 33, 5, 13, 0)
s = 87: (0, 14, 8, 25, 32, 2, 10, 8, 44, 9, 27, 0)
s = 88: (0, 22, 7, 22, 21, 2, 16, 7, 32, 4, 23, 0)
s = 89: (0, 15, 7, 27, 28, 2, 15, 7, 33, 4, 14, 0)
s = 90: (0, 33, 12, 20, 23, 3, 10, 8, 25, 6, 20, 0)
s = 91: (0, 12, 5, 40, 45, 3, 26, 6, 35, 6, 23, 0)
s = 92: (0, 26, 6, 19, 38, 2, 13, 7, 42, 4, 28, 0)
s = 93: (0, 15, 7, 18, 40, 3, 19, 8, 30, 4, 16, 0)
s = 94: (0, 19, 6, 20, 28, 2, 18, 8, 29, 4, 14, 0)
s = 95: (0, 11, 5, 21, 20, 2, 24, 13, 23, 5, 25, 0)
s = 96: (0, 12, 6, 25, 30, 2, 19, 7, 37, 5, 27, 0)
s = 97: (0, 20, 5, 31, 33, 2, 15, 7, 25, 6, 24, 0)
s = 98: (0, 24, 6, 31, 42, 3, 18, 7, 29, 6, 17, 0)
s = 99: (0, 11, 9, 17, 22, 3, 16, 7, 33, 7, 35, 0)
s = 100: (0, 17, 5, 25, 56, 2, 15, 7, 39, 6, 20, 0)
s = 101: (0, 16, 7, 34, 28, 2, 17, 10, 24, 4, 18, 0)
s = 102: (0, 23, 9, 21, 41, 3, 15, 13, 35, 7, 23, 0)
s = 103: (0, 18, 7, 27, 62, 3, 18, 7, 40, 5, 19, 0)
s = 104: (0, 29, 6, 17, 27, 3, 16, 7, 65, 7, 25, 0)
s = 105: (0, 24, 8, 32, 37, 3, 14, 7, 42, 6, 14, 0)
s = 106: (0, 20, 8, 22, 31, 2, 20, 12, 33, 9, 26, 0)
s = 107: (0, 15, 5, 19, 29, 2, 20, 6, 52, 4, 27, 0)
s = 108: (0, 15, 11, 22, 29, 2, 12, 8, 23, 4, 17, 0)
s = 109: (0, 21, 6, 26, 42, 2, 16, 7, 35, 8, 33, 0)
s = 110: (0, 17, 4, 18, 54, 2, 16, 7, 40, 6, 22, 0)
s = 111: (0, 18, 12, 34, 30, 2, 13, 8, 38, 6, 38, 0)
s = 112: (0, 15, 7, 18, 38, 2, 20, 12, 22, 7, 25, 0)
s = 113: (0, 25, 8, 25, 19, 2, 13, 7, 54, 4, 26, 0)
s = 114: (0, 11, 10, 22, 26, 3, 18, 8, 26, 5, 15, 0)
s = 115: (0, 20, 7, 17, 26, 2, 22, 9, 27, 4, 15, 0)
s = 116: (0, 22, 9, 30, 24, 2, 12, 6, 40, 5, 29, 0)
s = 117: (0, 24, 5, 22, 35, 3, 16, 7, 44, 4, 23, 0)
s = 118: (0, 15, 9, 15, 38, 2, 13, 9, 38, 8, 26, 0)
s = 119: (0, 30, 12, 22, 46, 2, 13, 5, 41, 7, 18, 0)
s = 120: (0, 20, 8, 43, 39, 2, 16, 11, 34, 5, 18, 0)
s = 121: (0, 28, 9, 29, 46, 3, 12, 8, 41, 5, 17, 0)
s = 122: (0, 15, 13, 39, 37, 3, 26, 12, 28, 8, 14, 0)
s = 123: (0, 18, 8, 36, 35, 2, 21, 8, 27, 8, 27, 0)
s = 124: (0, 23, 7, 22, 29, 3, 16, 6, 41, 4, 33, 0)
s = 125: (0, 17, 6, 26, 28, 3, 29, 6, 33, 7, 22, 0)
s = 126: (0, 16, 8, 19, 25, 2, 23, 7, 48, 4, 18, 0)
s = 127: (0, 18, 6, 20, 49, 2, 13, 9, 33, 5, 27, 0)
s = 128: (0, 11, 10, 22, 25, 2, 10, 5, 22, 9, 24, 0)
s = 129: (0, 21, 10, 19, 62, 2, 19, 12, 40, 6, 24, 0)
s = 130: (0, 17, 13, 18, 29, 3, 10, 7, 23, 5, 16, 0)
s = 131: (0, 14, 7, 21, 38, 3, 15, 7, 59, 6, 20, 0)
s = 132: (0, 19, 7, 21, 37, 3, 15, 8, 24, 4, 32, 0)
s = 133: (0, 17, 6, 21, 26, 2, 15, 12, 31, 5, 12, 0)
s = 134: (0, 11, 8, 24, 41, 2, 11, 7, 31, 8, 22, 0)
s = 135: (0, 15, 6, 26, 28, 2, 14, 7, 29, 7, 30, 0)
s = 136: (0, 16, 9, 37, 39, 2, 10, 7, 26, 5, 18, 0)
s = 137: (0, 14, 8, 23, 27, 2, 10, 8, 28, 6, 25, 0)
s = 138: (0, 18, 7, 20, 46, 3, 16, 8, 36, 6, 26, 0)
s = 139: (0, 21, 8, 32, 37, 3, 16, 11, 36, 4, 20, 0)
s = 140: (0, 28, 5, 20, 30, 4, 11, 7, 27, 6, 26, 0)
s = 141: (0, 17, 7, 26, 53, 2, 24, 10, 32, 8, 25, 0)
s = 142: (0, 15, 6, 23, 35, 3, 19, 9, 36, 6, 17, 0)
s = 143: (0, 18, 9, 25, 20, 3, 14, 6, 30, 5, 18, 0)
s = 144: (0, 13, 5, 17, 26, 2, 17, 9, 36, 8, 35, 0)
s = 145: (0, 13, 6, 20, 25, 3, 17, 15, 61, 8, 17, 0)
s = 146: (0, 21, 10, 19, 30, 3, 14, 14, 26, 6, 22, 0)
s = 147: (0, 20, 8, 24, 36, 2, 10, 11, 47, 8, 30, 0)
s = 148: (0, 28, 10, 17, 29, 2, 23, 9, 22, 6, 15, 0)
s = 149: (0, 16, 5, 31, 29, 2, 18, 5, 57, 4, 25, 0)
s = 150: (0, 21, 5, 24, 49, 2, 19, 14, 48, 4, 23, 0)
s = 151: (0, 19, 11, 22, 29, 2, 23, 6, 30, 6, 23, 0)
s = 152: (0, 12, 7, 43, 33, 3, 14, 7, 30, 5, 17, 0)
s = 153: (0, 16, 8, 33, 50, 2, 17, 5, 46, 6, 25, 0)
s = 154: (0, 16, 6, 23, 36, 2, 14, 10, 24, 4, 30, 0)
s = 155: (0, 20, 9, 30, 28, 2, 13, 9, 33, 6, 23, 0)
s = 156: (0, 11, 7, 37, 56, 4, 24, 6, 48, 6, 31, 0)
s = 157: (0, 15, 6, 34, 30, 4, 13, 7, 53, 6, 27, 0)
s = 158: (0, 17, 8, 33, 31, 3, 16, 12, 49, 6, 23, 0)
s = 159: (0, 15, 6, 21, 41, 2, 23, 9, 32, 4, 15, 0)
s = 160: (0, 22, 8, 21, 48, 2, 10, 8, 34, 5, 29, 0)
s = 161: (0, 14, 7, 26, 33, 2, 21, 9, 38, 4, 17, 0)
s = 162: (0, 21, 11, 21, 48, 2, 14, 8, 31, 6, 28, 0)
s = 163: (0, 20, 6, 25, 38, 3, 24, 13, 47, 8, 24, 0)
s = 164: (0, 16, 6, 23, 30, 2, 10, 7, 53, 6, 30, 0)
s = 165: (0, 13, 11, 32, 23, 3, 14, 7, 44, 5, 18, 0)
s = 166: (0, 12, 9, 21, 27, 4, 10, 6, 33, 8, 34, 0)
s = 167: (0, 16, 5, 24, 24, 2, 17, 9, 46, 4, 15, 0)
s = 168: (0, 13, 8, 25, 35, 2, 15, 7, 32, 4, 21, 0)
s = 169: (0, 19, 8, 23, 33, 3, 17, 13, 24, 6, 12, 0)
s = 170: (0, 24, 8, 21, 49, 2, 16, 8, 29, 5, 26, 0)
s = 171: (0, 30, 8, 30, 34, 3, 15, 9, 35, 5, 26, 0)
s = 172: (0, 26, 7, 16, 39, 3, 24, 9, 42, 6, 23, 0)
s = 173: (0, 25, 6, 15, 45, 2, 19, 8, 30, 6, 25, 0)
s = 174: (0, 19, 7, 18, 38, 2, 25, 10, 30, 5, 23, 0)
s = 175: (0, 17, 6, 34, 26, 2, 17, 8, 38, 5, 13, 0)
s = 176: (0, 26, 6, 23, 43, 2, 14, 8, 30, 5, 22, 0)
s = 177: (0, 21, 8, 23, 40, 2, 18, 11, 32, 5, 20, 0)
s = 178: (0, 16, 4, 24, 37, 2, 23, 13, 32, 6, 21, 0)
s = 179: (0, 17, 7, 33, 41, 3, 15, 9, 65, 4, 20, 0)
s = 180: (0, 17, 6, 20, 56, 3, 13, 13, 29, 7, 28, 0)
s = 181: (0, 10, 5, 21, 22, 4, 11, 12, 34, 5, 24, 0)
s = 182: (0, 21, 9, 16, 47, 2, 9, 11, 39, 5, 27, 0)
s = 183: (0, 14, 14, 27, 48, 2, 17, 6, 39, 6, 22, 0)
s = 184: (0, 16, 7, 18, 45, 3, 12, 14, 33, 9, 16, 0)
s = 185: (0, 16, 8, 19, 50, 2, 21, 8, 22, 6, 30, 0)
s = 186: (0, 18, 6, 20, 35, 2, 12, 10, 46, 7, 12, 0)
s = 187: (0, 27, 4, 15, 22, 2, 14, 10, 22, 5, 28, 0)
s = 188: (0, 15, 7, 25, 45, 4, 9, 7, 47, 6, 22, 0)
s = 189: (0, 14, 8, 23, 34, 2, 17, 6, 30, 8, 20, 0)
s = 190: (0, 27, 5, 18, 30, 2, 14, 11, 30, 6, 20, 0)
s = 191: (0, 19, 5, 19, 29, 3, 9, 10, 48, 8, 17, 0)
s = 192: (0, 15, 4, 15, 31, 3, 16, 10, 42, 5, 23, 0)
s = 193: (0, 13, 7, 17, 44, 2, 15, 7, 29, 8, 15, 0)
s = 194: (0, 30, 8, 17, 20, 2, 14, 8, 26, 3, 14, 0)
s = 195: (0, 15, 6, 26, 44, 3, 15, 10, 25, 6, 26, 0)
s = 196: (0, 21, 8, 16, 43, 2, 19, 11, 40, 5, 21, 0)
s = 197: (0, 21, 8, 32, 35, 2, 15, 10, 32, 8, 15, 0)
s = 198: (0, 15, 9, 18, 60, 2, 13, 8, 42, 5, 24, 0)
s = 199: (0, 20, 11, 26, 20, 2, 11, 11, 28, 5, 11, 0)
s = 200: (0, 14, 5, 28, 50, 3, 18, 10, 47, 6, 30, 0)
************************************************************************
ES/LS-VALUES:
jobnr.   ES(i)    LS(i)
------------------------------------------------------------------------
  0        0        0
  1        0       60
  2        0       58
  3        0       40
  4        7       48
  5       16       58
  6       18       60
  7        2       62
  8       18       64
  9       27       70
 10        7       66
 11       29       72
************************************************************************
BIG-M-VALUES:
M1 = 35, M2 = 131
************************************************************************
